20	5
0	7	7	5	6	3	4	1	2
1	6	13	18	15	8	14	20
2	6	17	16	18	14	13	15
3	9	16	19	15	13	14	17	12	18	20
4	3	18	19	16
5	3	18	11	20
6	4	8	13	15	18
7	5	14	10	18	19	16
8	1	9
9	3	17	12	19
10	4	13	17	15	12
11	2	8	10
12	1	21
13	1	21
14	1	21
15	1	21
16	1	21
17	1	21
18	1	21
19	1	21
20	1	21
21	0
0	0	0	0	0	0	0
1	3	1	3	5	3	4
2	6	4	1	1	1	2
3	1	1	3	5	2	4
4	5	5	5	2	5	1
5	2	4	1	1	3	4
6	6	1	3	5	4	2
7	9	1	2	3	2	2
8	9	5	3	4	4	3
9	1	3	4	3	2	4
10	10	4	3	1	1	2
11	7	5	5	3	1	4
12	5	5	2	5	1	2
13	4	5	2	2	3	2
14	1	5	3	4	3	5
15	1	1	5	3	2	2
16	3	2	1	5	4	1
17	2	2	1	2	5	4
18	9	4	5	4	1	2
19	3	4	3	5	4	1
20	5	5	5	2	4	2
21	0	0	0	0	0	0
5	5	5	5	5
